<number of tasks>
45

<cycle time>
184

<task times>
1 9
2 9
3 10
4 10
5 17
6 17
7 13
8 13
9 20
10 20
11 10
12 11
13 6
14 22
15 11
16 19
17 12
18 3
19 7
20 4
21 55
22 14
23 27
24 29
25 26
26 6
27 5
28 24
29 4
30 5
31 7
32 4
33 15
34 3
35 7
36 9
37 4
38 7
39 5
40 4
41 21
42 12
43 6
44 5
45 5

<precedence relations>
1,3
1,7
2,4
2,8
3,5
4,6
5,9
6,10
7,9
7,14
8,10
8,14
9,41
10,41
11,13
12,13
12,37
13,14
13,15
14,17
14,25
14,29
14,30
14,31
14,32
15,16
15,18
15,23
15,24
16,19
17,26
17,27
18,19
19,20
19,33
20,21
21,22
22,28
23,33
24,33
25,26
26,38
27,28
27,33
28,38
29,41
30,41
31,41
32,41
33,34
33,35
33,36
34,38
35,40
36,38
37,43
38,40
39,41
40,41
41,42
42,44
42,45

<setup times forward>
1,4:4
1,6:4
1,10:4
1,22:2
1,23:4
1,24:4
1,39:4
1,43:4
2,4:4
2,5:4
2,9:4
2,22:2
2,23:4
2,24:4
2,39:4
2,43:4
3,4:4
3,5:4
3,6:4
3,10:4
3,14:4
3,17:2
3,22:2
3,23:4
3,24:4
3,25:2
3,26:2
3,27:2
3,28:2
3,29:2
3,30:2
3,31:4
3,32:4
3,33:2
3,34:2
3,35:2
3,36:2
3,38:2
3,39:4
3,40:2
3,43:4
4,1:4
4,3:4
4,7:4
4,8:4
4,11:4
4,12:4
4,13:4
4,15:4
4,16:4
4,17:6
4,18:4
4,19:4
4,20:4
4,21:4
4,22:6
4,25:6
4,26:6
4,27:6
4,28:6
4,29:6
4,30:6
4,33:6
4,34:6
4,35:6
4,36:6
4,37:4
4,38:6
4,40:6
5,2:4
5,7:4
5,8:4
5,11:4
5,12:4
5,13:4
5,15:4
5,16:4
5,17:6
5,18:4
5,19:4
5,20:4
5,21:4
5,22:6
5,25:6
5,26:6
5,27:6
5,28:6
5,29:6
5,30:6
5,33:6
5,34:6
5,35:6
5,36:6
5,37:4
5,38:6
5,40:6
6,1:4
6,3:4
6,7:4
6,8:4
6,11:4
6,12:4
6,13:4
6,15:4
6,16:4
6,17:6
6,18:4
6,19:4
6,20:4
6,21:4
6,22:6
6,25:6
6,26:6
6,27:6
6,28:6
6,29:6
6,30:6
6,33:6
6,34:6
6,35:6
6,36:6
6,37:4
6,38:6
6,40:6
7,4:4
7,5:4
7,6:4
7,9:4
7,10:4
7,14:4
7,22:2
7,23:4
7,24:4
7,39:4
7,43:4
8,4:4
8,5:4
8,6:4
8,9:4
8,10:4
8,14:4
8,22:2
8,23:4
8,24:4
8,39:4
8,43:4
9,2:4
9,8:4
9,11:4
9,12:4
9,13:4
9,15:4
9,16:4
9,17:6
9,18:4
9,19:4
9,20:4
9,21:4
9,22:6
9,25:6
9,26:6
9,27:6
9,28:6
9,29:6
9,30:6
9,33:6
9,34:6
9,35:6
9,36:6
9,37:4
9,38:6
9,40:6
9,41:6
10,1:4
10,3:4
10,7:4
10,11:4
10,12:4
10,13:4
10,15:4
10,16:4
10,17:6
10,18:4
10,19:4
10,20:4
10,21:4
10,22:6
10,25:6
10,26:6
10,27:6
10,28:6
10,29:6
10,30:6
10,33:6
10,34:6
10,35:6
10,36:6
10,37:4
10,38:6
10,40:6
10,41:6
11,4:4
11,5:4
11,6:4
11,9:4
11,10:4
11,39:4
11,43:4
12,4:4
12,5:4
12,6:4
12,9:4
12,10:4
12,39:4
13,4:4
13,5:4
13,6:4
13,9:4
13,10:4
13,14:4
13,39:4
13,43:4
14,3:4
14,15:4
14,16:4
14,17:6
14,18:4
14,19:4
14,20:4
14,21:4
14,22:6
14,25:6
14,29:6
14,30:6
14,37:4
15,4:4
15,5:4
15,6:4
15,9:4
15,10:4
15,14:4
15,17:2
15,23:4
15,24:4
15,25:2
15,26:2
15,27:2
15,29:2
15,30:2
15,31:4
15,32:4
15,39:4
15,43:4
16,4:4
16,5:4
16,6:4
16,9:4
16,10:4
16,14:4
16,17:2
16,23:4
16,24:4
16,25:2
16,26:2
16,27:2
16,29:2
16,30:2
16,31:4
16,32:4
16,39:4
16,43:4
17,3:2
17,4:6
17,5:6
17,6:6
17,9:6
17,10:6
17,15:2
17,16:2
17,18:2
17,19:2
17,20:2
17,21:2
17,23:6
17,24:6
17,31:6
17,32:6
17,37:2
17,39:6
17,43:6
18,4:4
18,5:4
18,6:4
18,9:4
18,10:4
18,14:4
18,17:2
18,23:4
18,24:4
18,25:2
18,26:2
18,27:2
18,29:2
18,30:2
18,31:4
18,32:4
18,39:4
18,43:4
19,4:4
19,5:4
19,6:4
19,9:4
19,10:4
19,14:4
19,17:2
19,23:4
19,24:4
19,25:2
19,26:2
19,27:2
19,29:2
19,30:2
19,31:4
19,32:4
19,33:2
19,39:4
19,43:4
20,4:4
20,5:4
20,6:4
20,9:4
20,10:4
20,14:4
20,17:2
20,23:4
20,24:4
20,25:2
20,26:2
20,27:2
20,29:2
20,30:2
20,31:4
20,32:4
20,33:2
20,34:2
20,35:2
20,36:2
20,39:4
20,43:4
21,4:4
21,5:4
21,6:4
21,9:4
21,10:4
21,14:4
21,17:2
21,22:2
21,23:4
21,24:4
21,25:2
21,26:2
21,27:2
21,29:2
21,30:2
21,31:4
21,32:4
21,33:2
21,34:2
21,35:2
21,36:2
21,39:4
21,43:4
22,1:2
22,2:2
22,3:2
22,4:6
22,5:6
22,6:6
22,7:2
22,8:2
22,9:6
22,10:6
22,14:6
22,23:6
22,24:6
22,31:6
22,32:6
22,37:2
22,39:6
22,43:6
23,1:4
23,2:4
23,3:4
23,7:4
23,8:4
23,16:4
23,17:6
23,18:4
23,19:4
23,20:4
23,21:4
23,22:6
23,25:6
23,26:6
23,27:6
23,28:6
23,29:6
23,30:6
23,33:6
23,37:4
24,1:4
24,2:4
24,3:4
24,7:4
24,8:4
24,16:4
24,17:6
24,18:4
24,19:4
24,20:4
24,21:4
24,22:6
24,25:6
24,26:6
24,27:6
24,28:6
24,29:6
24,30:6
24,33:6
24,37:4
25,3:2
25,4:6
25,5:6
25,6:6
25,9:6
25,10:6
25,15:2
25,16:2
25,18:2
25,19:2
25,20:2
25,21:2
25,23:6
25,24:6
25,31:6
25,32:6
25,37:2
25,39:6
25,43:6
26,3:2
26,4:6
26,5:6
26,6:6
26,9:6
26,10:6
26,15:2
26,16:2
26,18:2
26,19:2
26,20:2
26,21:2
26,23:6
26,24:6
26,31:6
26,32:6
26,37:2
26,39:6
26,43:6
27,3:2
27,4:6
27,5:6
27,6:6
27,9:6
27,10:6
27,15:2
27,16:2
27,18:2
27,19:2
27,20:2
27,21:2
27,23:6
27,24:6
27,31:6
27,32:6
27,37:2
27,39:6
27,43:6
28,3:2
28,4:6
28,5:6
28,6:6
28,9:6
28,10:6
28,23:6
28,24:6
28,31:6
28,32:6
28,37:2
28,39:6
28,43:6
29,3:2
29,4:6
29,5:6
29,6:6
29,9:6
29,10:6
29,15:2
29,16:2
29,18:2
29,19:2
29,20:2
29,21:2
29,23:6
29,24:6
29,31:6
29,32:6
29,37:2
29,39:6
29,43:6
30,3:2
30,4:6
30,5:6
30,6:6
30,9:6
30,10:6
30,15:2
30,16:2
30,18:2
30,19:2
30,20:2
30,21:2
30,23:6
30,24:6
30,31:6
30,32:6
30,37:2
30,39:6
30,43:6
31,3:4
31,15:4
31,16:4
31,17:6
31,18:4
31,19:4
31,20:4
31,21:4
31,22:6
31,25:6
31,26:6
31,27:6
31,28:6
31,29:6
31,30:6
31,33:6
31,34:6
31,35:6
31,36:6
31,37:4
31,38:6
31,40:6
31,41:6
32,3:4
32,15:4
32,16:4
32,17:6
32,18:4
32,19:4
32,20:4
32,21:4
32,22:6
32,25:6
32,26:6
32,27:6
32,28:6
32,29:6
32,30:6
32,33:6
32,34:6
32,35:6
32,36:6
32,37:4
32,38:6
32,40:6
32,41:6
33,3:2
33,4:6
33,5:6
33,6:6
33,9:6
33,10:6
33,20:2
33,21:2
33,31:6
33,32:6
33,37:2
33,39:6
33,43:6
34,3:2
34,4:6
34,5:6
34,6:6
34,9:6
34,10:6
34,20:2
34,21:2
34,31:6
34,32:6
34,37:2
34,39:6
34,43:6
35,3:2
35,4:6
35,5:6
35,6:6
35,9:6
35,10:6
35,20:2
35,21:2
35,31:6
35,32:6
35,37:2
35,39:6
35,43:6
36,3:2
36,4:6
36,5:6
36,6:6
36,9:6
36,10:6
36,20:2
36,21:2
36,31:6
36,32:6
36,37:2
36,39:6
36,43:6
37,4:4
37,5:4
37,6:4
37,9:4
37,10:4
37,14:4
37,17:2
37,22:2
37,23:4
37,24:4
37,25:2
37,26:2
37,27:2
37,28:2
37,29:2
37,30:2
37,31:4
37,32:4
37,33:2
37,34:2
37,35:2
37,36:2
37,38:2
37,39:4
37,40:2
37,41:2
37,42:2
37,43:4
37,44:2
37,45:2
38,3:2
38,4:6
38,5:6
38,6:6
38,9:6
38,10:6
38,31:6
38,32:6
38,37:2
38,39:6
38,43:6
39,1:4
39,2:4
39,3:4
39,7:4
39,8:4
39,11:4
39,12:4
39,13:4
39,15:4
39,16:4
39,17:6
39,18:4
39,19:4
39,20:4
39,21:4
39,22:6
39,25:6
39,26:6
39,27:6
39,28:6
39,29:6
39,30:6
39,33:6
39,34:6
39,35:6
39,36:6
39,37:4
39,38:6
39,40:6
39,41:6
40,3:2
40,4:6
40,5:6
40,6:6
40,9:6
40,10:6
40,31:6
40,32:6
40,37:2
40,39:6
40,43:6
41,37:2
41,43:6
42,37:2
42,43:6
43,1:4
43,2:4
43,3:4
43,7:4
43,8:4
43,11:4
43,13:4
43,15:4
43,16:4
43,17:6
43,18:4
43,19:4
43,20:4
43,21:4
43,22:6
43,25:6
43,26:6
43,27:6
43,28:6
43,29:6
43,30:6
43,33:6
43,34:6
43,35:6
43,36:6
43,38:6
43,40:6
43,41:6
43,42:6
43,44:6
43,45:6
44,37:2
44,43:6
45,37:2
45,43:6

<setup times backward>
1,22:2
2,22:2
3,17:2
3,22:2
3,25:2
3,26:2
3,27:2
3,28:2
3,29:2
3,30:2
3,33:2
3,34:2
3,35:2
3,36:2
3,38:2
3,40:2
4,1:4
4,2:4
4,3:4
4,7:4
4,8:4
4,11:4
4,12:4
4,13:4
4,15:4
4,16:4
4,17:6
4,18:4
4,19:4
4,20:4
4,21:4
4,22:6
4,25:6
4,26:6
4,27:6
4,28:6
4,29:6
4,30:6
4,33:6
4,34:6
4,35:6
4,36:6
4,37:4
4,38:6
4,40:6
5,1:4
5,2:4
5,3:4
5,7:4
5,8:4
5,11:4
5,12:4
5,13:4
5,15:4
5,16:4
5,17:6
5,18:4
5,19:4
5,20:4
5,21:4
5,22:6
5,25:6
5,26:6
5,27:6
5,28:6
5,29:6
5,30:6
5,33:6
5,34:6
5,35:6
5,36:6
5,37:4
5,38:6
5,40:6
6,1:4
6,2:4
6,3:4
6,7:4
6,8:4
6,11:4
6,12:4
6,13:4
6,15:4
6,16:4
6,17:6
6,18:4
6,19:4
6,20:4
6,21:4
6,22:6
6,25:6
6,26:6
6,27:6
6,28:6
6,29:6
6,30:6
6,33:6
6,34:6
6,35:6
6,36:6
6,37:4
6,38:6
6,40:6
7,22:2
8,22:2
9,1:4
9,2:4
9,3:4
9,7:4
9,8:4
9,11:4
9,12:4
9,13:4
9,15:4
9,16:4
9,17:6
9,18:4
9,19:4
9,20:4
9,21:4
9,22:6
9,25:6
9,26:6
9,27:6
9,28:6
9,29:6
9,30:6
9,33:6
9,34:6
9,35:6
9,36:6
9,37:4
9,38:6
9,40:6
10,1:4
10,2:4
10,3:4
10,7:4
10,8:4
10,11:4
10,12:4
10,13:4
10,15:4
10,16:4
10,17:6
10,18:4
10,19:4
10,20:4
10,21:4
10,22:6
10,25:6
10,26:6
10,27:6
10,28:6
10,29:6
10,30:6
10,33:6
10,34:6
10,35:6
10,36:6
10,37:4
10,38:6
10,40:6
14,1:4
14,2:4
14,3:4
14,7:4
14,8:4
14,11:4
14,12:4
14,13:4
14,15:4
14,16:4
14,18:4
14,19:4
14,20:4
14,21:4
14,22:6
14,37:4
15,17:2
15,25:2
15,26:2
15,27:2
15,29:2
15,30:2
16,17:2
16,25:2
16,26:2
16,27:2
16,29:2
16,30:2
18,17:2
18,25:2
18,26:2
18,27:2
18,29:2
18,30:2
19,17:2
19,25:2
19,26:2
19,27:2
19,29:2
19,30:2
20,17:2
20,25:2
20,26:2
20,27:2
20,29:2
20,30:2
20,33:2
20,34:2
20,35:2
20,36:2
21,17:2
21,25:2
21,26:2
21,27:2
21,29:2
21,30:2
21,33:2
21,34:2
21,35:2
21,36:2
23,1:4
23,2:4
23,3:4
23,7:4
23,8:4
23,11:4
23,12:4
23,13:4
23,15:4
23,16:4
23,17:6
23,18:4
23,19:4
23,20:4
23,21:4
23,22:6
23,25:6
23,26:6
23,27:6
23,28:6
23,29:6
23,30:6
23,37:4
24,1:4
24,2:4
24,3:4
24,7:4
24,8:4
24,11:4
24,12:4
24,13:4
24,15:4
24,16:4
24,17:6
24,18:4
24,19:4
24,20:4
24,21:4
24,22:6
24,25:6
24,26:6
24,27:6
24,28:6
24,29:6
24,30:6
24,37:4
31,1:4
31,2:4
31,3:4
31,7:4
31,8:4
31,11:4
31,12:4
31,13:4
31,15:4
31,16:4
31,17:6
31,18:4
31,19:4
31,20:4
31,21:4
31,22:6
31,25:6
31,26:6
31,27:6
31,28:6
31,29:6
31,30:6
31,33:6
31,34:6
31,35:6
31,36:6
31,37:4
31,38:6
31,40:6
32,1:4
32,2:4
32,3:4
32,7:4
32,8:4
32,11:4
32,12:4
32,13:4
32,15:4
32,16:4
32,17:6
32,18:4
32,19:4
32,20:4
32,21:4
32,22:6
32,25:6
32,26:6
32,27:6
32,28:6
32,29:6
32,30:6
32,33:6
32,34:6
32,35:6
32,36:6
32,37:4
32,38:6
32,40:6
37,17:2
37,22:2
37,25:2
37,26:2
37,27:2
37,28:2
37,29:2
37,30:2
37,33:2
37,34:2
37,35:2
37,36:2
37,38:2
37,40:2
37,41:2
37,42:2
37,44:2
37,45:2
39,1:4
39,2:4
39,3:4
39,7:4
39,8:4
39,11:4
39,12:4
39,13:4
39,15:4
39,16:4
39,17:6
39,18:4
39,19:4
39,20:4
39,21:4
39,22:6
39,25:6
39,26:6
39,27:6
39,28:6
39,29:6
39,30:6
39,33:6
39,34:6
39,35:6
39,36:6
39,37:4
39,38:6
39,40:6
43,1:4
43,2:4
43,3:4
43,7:4
43,8:4
43,11:4
43,12:4
43,13:4
43,15:4
43,16:4
43,17:6
43,18:4
43,19:4
43,20:4
43,21:4
43,22:6
43,25:6
43,26:6
43,27:6
43,28:6
43,29:6
43,30:6
43,33:6
43,34:6
43,35:6
43,36:6
43,37:4
43,38:6
43,40:6
43,41:6
43,42:6
43,44:6
43,45:6

<end>

<optimal SALBP-1 value>
3


<rand seed>
467321153

